mixintcount/benchmarks/random_v2l/3_3_1000.smt2
(set-logic QF_LIA)
(set-info :ran/ran2.smt2)
(set-info :smt-lib-version 2.0)
(declare-fun x1 () Int)
(declare-fun x2 () Int)
(declare-fun x3 () Int)
(assert (<= (+ (* (- 1) x1) (* 7 x2) (* 0 x3) ) (- 243)))
(assert (<= (+ (* 6 x1) (* 3 x2) (* 4 x3) ) 844))
(assert (<= (+ (* (- 5) x1) (* 1 x2) (* 3 x3) ) 436))
(assert (<= (+ (* 2 x1) (* 0 x2) (* 8 x3) ) (- 443)))
(assert (<= (+ (* 4 x1) (* 9 x2) (* (- 7) x3) ) (- 131)))
(assert (<= (+ (* (- 4) x1) (* 6 x2) (* (- 8) x3) ) 795))
(assert (<= (+ (* 1 x1) (* 0 x2) (* 0 x3) ) 1000))
(assert (<= (+ (* (- 1) x1) (* 0 x2) (* 0 x3) ) 1000))
(assert (<= (+ (* 0 x1) (* 1 x2) (* 0 x3) ) 1000))
(assert (<= (+ (* 0 x1) (* (- 1) x2) (* 0 x3) ) 1000))
(assert (<= (+ (* 0 x1) (* 0 x2) (* 1 x3) ) 1000))
(assert (<= (+ (* 0 x1) (* 0 x2) (* (- 1) x3) ) 1000))
