mixintcount/benchmarks/random_v2l/3_3_1000.in
12 5
#	x1	x2	x3;		0 = Real; 1 = Integer
	1	1	1
1	-1	7	0	-243
1	6	3	4	844
1	-5	1	3	436
1	2	0	8	-443
1	4	9	-7	-131
1	-4	6	-8	795
1	1	0	0	1000
1	-1	0	0	1000
1	0	1	0	1000
1	0	-1	0	1000
1	0	0	1	1000
1	0	0	-1	1000
